p edge 50 490
e 1 4
e 1 6
e 1 7
e 1 8
e 1 10
e 1 13
e 1 15
e 1 16
e 1 17
e 1 19
e 1 20
e 1 21
e 1 22
e 1 23
e 1 25
e 1 31
e 1 32
e 1 33
e 1 34
e 1 38
e 1 40
e 1 44
e 1 48
e 1 49
e 1 50
e 2 5
e 2 7
e 2 16
e 2 19
e 2 21
e 2 23
e 2 24
e 2 33
e 2 34
e 2 35
e 2 37
e 2 40
e 2 45
e 2 47
e 3 5
e 3 15
e 3 16
e 3 18
e 3 19
e 3 26
e 3 27
e 3 29
e 3 30
e 3 31
e 3 33
e 3 35
e 3 37
e 3 44
e 3 46
e 3 49
e 3 50
e 4 5
e 4 7
e 4 10
e 4 11
e 4 15
e 4 19
e 4 20
e 4 24
e 4 26
e 4 31
e 4 34
e 4 36
e 4 37
e 4 38
e 4 39
e 4 40
e 4 41
e 4 45
e 4 46
e 4 48
e 5 9
e 5 10
e 5 11
e 5 16
e 5 24
e 5 25
e 5 26
e 5 29
e 5 32
e 5 34
e 5 40
e 5 42
e 5 43
e 5 44
e 5 46
e 5 47
e 5 48
e 5 49
e 6 8
e 6 11
e 6 12
e 6 14
e 6 17
e 6 22
e 6 23
e 6 24
e 6 25
e 6 30
e 6 31
e 6 33
e 6 34
e 6 40
e 6 43
e 6 44
e 6 46
e 7 9
e 7 11
e 7 12
e 7 14
e 7 15
e 7 17
e 7 18
e 7 19
e 7 20
e 7 21
e 7 26
e 7 27
e 7 32
e 7 33
e 7 37
e 7 38
e 7 41
e 7 42
e 7 43
e 7 45
e 7 46
e 7 49
e 7 50
e 8 9
e 8 11
e 8 13
e 8 18
e 8 27
e 8 31
e 8 36
e 8 37
e 8 42
e 8 43
e 8 48
e 8 49
e 9 10
e 9 11
e 9 12
e 9 13
e 9 14
e 9 15
e 9 17
e 9 19
e 9 23
e 9 36
e 9 38
e 9 39
e 9 43
e 9 44
e 9 45
e 9 47
e 9 48
e 9 49
e 9 50
e 10 12
e 10 18
e 10 19
e 10 24
e 10 29
e 10 32
e 10 33
e 10 36
e 10 43
e 10 44
e 10 45
e 10 47
e 11 12
e 11 14
e 11 20
e 11 21
e 11 22
e 11 30
e 11 35
e 11 37
e 11 38
e 11 39
e 11 46
e 11 49
e 11 50
e 12 16
e 12 18
e 12 23
e 12 27
e 12 28
e 12 35
e 12 36
e 12 44
e 12 45
e 12 46
e 12 47
e 12 48
e 12 49
e 12 50
e 13 14
e 13 15
e 13 16
e 13 17
e 13 20
e 13 22
e 13 27
e 13 28
e 13 29
e 13 36
e 13 37
e 13 38
e 13 40
e 13 42
e 13 43
e 13 46
e 13 48
e 13 49
e 14 16
e 14 17
e 14 24
e 14 27
e 14 28
e 14 30
e 14 31
e 14 33
e 14 35
e 14 42
e 14 43
e 14 46
e 15 16
e 15 17
e 15 18
e 15 23
e 15 30
e 15 33
e 15 36
e 15 38
e 15 39
e 15 43
e 15 44
e 15 49
e 16 17
e 16 19
e 16 25
e 16 26
e 16 27
e 16 31
e 16 34
e 16 35
e 16 38
e 16 45
e 16 47
e 17 24
e 17 25
e 17 26
e 17 27
e 17 28
e 17 34
e 17 37
e 17 38
e 17 41
e 17 44
e 17 47
e 17 49
e 17 50
e 18 19
e 18 21
e 18 23
e 18 25
e 18 26
e 18 30
e 18 31
e 18 37
e 18 38
e 18 39
e 18 40
e 18 45
e 18 46
e 18 48
e 18 50
e 19 21
e 19 22
e 19 29
e 19 30
e 19 35
e 19 36
e 19 37
e 19 39
e 19 40
e 19 43
e 19 46
e 19 48
e 19 49
e 19 50
e 20 21
e 20 22
e 20 24
e 20 31
e 20 36
e 20 37
e 20 42
e 20 45
e 20 46
e 20 47
e 20 48
e 21 22
e 21 24
e 21 27
e 21 30
e 21 37
e 21 38
e 21 39
e 21 42
e 21 46
e 21 47
e 22 25
e 22 29
e 22 30
e 22 32
e 22 36
e 22 37
e 22 40
e 22 41
e 22 46
e 22 47
e 22 49
e 23 24
e 23 25
e 23 29
e 23 30
e 23 33
e 23 40
e 23 41
e 23 42
e 23 45
e 23 49
e 24 25
e 24 29
e 24 33
e 24 37
e 24 38
e 24 39
e 24 41
e 24 42
e 24 46
e 25 27
e 25 29
e 25 36
e 25 40
e 25 42
e 25 43
e 25 45
e 25 46
e 25 50
e 26 28
e 26 30
e 26 31
e 26 32
e 26 33
e 26 37
e 26 38
e 26 40
e 26 41
e 26 43
e 26 46
e 26 48
e 26 49
e 26 50
e 27 35
e 27 42
e 27 43
e 27 48
e 27 49
e 28 30
e 28 31
e 28 32
e 28 34
e 28 39
e 28 40
e 28 43
e 28 46
e 28 48
e 28 49
e 29 36
e 29 39
e 29 41
e 29 42
e 29 44
e 29 45
e 29 49
e 29 50
e 30 31
e 30 33
e 30 36
e 30 37
e 30 40
e 30 43
e 30 44
e 30 46
e 30 47
e 30 48
e 31 35
e 31 36
e 31 38
e 31 41
e 31 43
e 31 46
e 31 48
e 31 49
e 31 50
e 32 36
e 32 37
e 32 38
e 32 39
e 32 40
e 32 46
e 32 48
e 32 49
e 33 35
e 33 37
e 33 40
e 33 46
e 34 40
e 34 41
e 34 42
e 34 44
e 34 45
e 34 46
e 34 49
e 34 50
e 35 39
e 35 41
e 35 42
e 35 43
e 35 44
e 35 47
e 35 48
e 35 50
e 36 40
e 36 42
e 36 44
e 36 45
e 36 50
e 37 39
e 37 41
e 37 43
e 37 44
e 37 46
e 38 43
e 38 44
e 38 45
e 38 47
e 39 45
e 39 46
e 39 47
e 39 50
e 40 43
e 40 44
e 40 49
e 40 50
e 41 43
e 41 44
e 41 45
e 41 46
e 41 49
e 42 46
e 42 49
e 42 50
e 43 44
e 43 45
e 43 49
e 43 50
e 44 45
e 44 47
e 44 48
e 44 49
e 45 46
e 45 47
e 45 49
e 45 50
e 46 50
e 47 49
e 47 50
e 48 49
e 49 50